c turning on binary mode checking
c parsing input formula with 202048 variables and 780985 clauses
c finished parsing, read 2267479 bytes from proof file
c detected empty clause; start verification via backward checking
c 1342 of 780985 clauses in core                            
c 385 of 91058 lemmas in core using 9309 resolution steps
c 0 RAT lemmas in core; 21 redundant literals in core lemmas
s VERIFIED
c verification time: 0.891 seconds
